; benchmark generated from python API
(set-info :status unknown)
(declare-datatypes ((IntState 0)) (((Mk1 (val1 Int)) (Mk2 (val2 Int)))))
 (declare-fun c_main_~j~6 () Int)
(declare-fun c_main_~k~6 () Int)
(declare-fun c_main_~i~6 () Int)
(assert
 (let (($x71 (exists ((v_nnf_30_st IntState) (val!72 Int) )(let ((?x56 (val2 v_nnf_30_st)))
 (let (($x87 (<= ?x56 3)))
 (let (($x110 (and (<= (+ ?x56 1) c_main_~k~6) $x87 (<= c_main_~j~6 (+ (* 2 ?x56) 1)))))
 (let (($x52 (not (= v_nnf_30_st (Mk1 val!72)))))
 (and $x52 $x110))))))
 ))
 (let (($x151 (<= c_main_~i~6 2)))
 (let (($x98 (<= c_main_~i~6 3)))
 (let (($x94 (exists ((v_nnf_30 Int) )(let (($x48 (<= v_nnf_30 3)))
 (and (<= (+ v_nnf_30 1) c_main_~k~6) $x48 (<= c_main_~j~6 (+ (* 2 v_nnf_30) 1)))))
 ))
 (let (($x120 (<= c_main_~j~6 (+ (* 2 c_main_~i~6) 1))))
 (let ((?x172 (* 2 c_main_~i~6)))
 (let (($x148 (<= c_main_~j~6 ?x172)))
 (and (and $x148 $x98 $x120 $x151 $x94) (not (and $x98 $x151 $x71)))))))))))
(check-sat)
